WARNING: for repeatability, setting FPU to use double precision
============================[ Problem Statistics ]=============================
|                                                                             |
|  Number of variables:         60676                                         |
|  Number of clauses:          176908                                         |
|  Parse time:                   0.05 s                                       |
|                                                                             |
c ============================[ Search Statistics ]==============================
c | Conflicts |          ORIGINAL         |          LEARNT          | Progress |
c |           |    Vars  Clauses Literals |    Limit  Clauses Lit/Cl |          |
c ===============================================================================
c Switched to VSIDS.
c Switched to LRB.
c Switched to VSIDS.
c Switched to LRB.
c Switched to VSIDS.
c Switched to LRB.
c Switched to VSIDS.
c Switched to LRB.
c Switched to VSIDS.
c Switched to LRB.
c Switched to VSIDS.
c Switched to LRB.
c Switched to VSIDS.
c Switched to LRB.
c Switched to VSIDS.
c Switched to LRB.
c Switched to VSIDS.
c Switched to LRB.
c Switched to VSIDS.
c Switched to LRB.
c Switched to VSIDS.
c Switched to LRB.
c Switched to VSIDS.
c Switched to LRB.
c Switched to VSIDS.
c Switched to LRB.
c Switched to VSIDS.
c Switched to LRB.
c Switched to VSIDS.
c Switched to LRB.
c Switched to VSIDS.
c Switched to LRB.
c Switched to VSIDS.
c ===============================================================================
restarts                  : 66941
conflicts                 : 13390793       (3786 /sec)
decisions                 : 89577435       (0.00 % random) (25326 /sec)
propagations              : 7189915728     (2032748 /sec)
conflict literals         : 870994547      (10.92 % deleted)

conflicts w/ DIP found    : 10968996       (81.91 % of conflicts)
conflicts w/ dangerous DIP: 0              (0.00 % of conflicts)
conflicts w/ DIP-learning : 201916         (1.51 % of conflicts)
decisions on ext vars     : 17049454       (19.03 % of decisions)
total ext vars            : 16580       
tried delete ext vars     : 4           
deleted ext vars          : 4           
max ext vars              : 16576       

Memory used               : 746.00 MB
CPU time                  : 3537.04 s
DIP computation time      : 101.191 s (2.86 % of total time)
ER_sel time               : 17.5395 s
ER_add time               : 0.083774 s
ER_delC time              : 0 s
ER_delV time              : 0.001521 s
ER_sub time               : 21.9798 s
ER_stat time              : 0 s

INDETERMINATE
